(set-logic BV) (define-fun origCir ((n144 Bool) (n183 Bool) (n178 Bool) (n194 Bool)) Bool (and (not (and (not (and n183 n178)) n144)) n194)) (synth-fun skel ((n144 Bool) (n183 Bool) (n178 Bool) (n194 Bool)) Bool) (declare-var n144 Bool) (declare-var n183 Bool) (declare-var n178 Bool) (declare-var n194 Bool) (constraint (= (origCir n144 n183 n178 n194) (skel n144 n183 n178 n194))) (check-synth)
